Input file: instance_27.lp
Input data:
num_squadre(2).
player(1, difensore, portiere).
player(2, portiere, centrocampista).
player(3, centrocampista, attaccante).
player(4, portiere, centrocampista).
player(5, difensore, attaccante).
player(6, difensore, centrocampista).
player(7, attaccante, portiere).
player(8, difensore, attaccante).
player(9, attaccante, portiere).
player(10, difensore, portiere).
player(11, attaccante, difensore).
player(12, centrocampista, portiere).
player(13, portiere, attaccante).
player(14, attaccante, centrocampista).
player(15, portiere, difensore).
player(16, portiere, attaccante).
player(17, centrocampista, attaccante).
player(18, attaccante, difensore).
player(19, attaccante, centrocampista).
player(20, centrocampista, portiere).
player(21, attaccante, portiere).
player(22, attaccante, centrocampista).
player(23, centrocampista, portiere).
player(24, portiere, difensore).
player(25, portiere, centrocampista).
player(26, centrocampista, attaccante).
player(27, attaccante, centrocampista).
player(28, centrocampista, attaccante).
different_team(1, 2).


Output Clingo:
clingo version 5.7.1
Reading from ...ed-Reasoning-Project\Clingo\implASP.lp ...
Solving...
Answer: 1
assigned(1,1,portiere) assigned(2,2,portiere) assigned(3,1,attaccante) assigned(4,2,centrocampista) assigned(5,1,attaccante) assigned(6,2,difensore) assigned(7,2,attaccante) assigned(8,2,difensore) assigned(9,1,attaccante) assigned(10,1,difensore) assigned(11,1,difensore) assigned(12,1,centrocampista) assigned(13,1,attaccante) assigned(14,1,attaccante) assigned(15,2,difensore) assigned(16,2,attaccante) assigned(17,1,attaccante) assigned(18,1,attaccante) assigned(19,2,attaccante) assigned(20,1,centrocampista) assigned(21,2,attaccante) assigned(22,2,attaccante) assigned(23,2,centrocampista) assigned(24,1,difensore) assigned(25,1,centrocampista) assigned(26,2,attaccante) assigned(27,2,centrocampista) assigned(28,1,attaccante) total_penalty(1)
Optimization: 1
Answer: 1
assigned(1,2,difensore) assigned(2,1,centrocampista) assigned(3,1,centrocampista) assigned(4,1,centrocampista) assigned(5,2,attaccante) assigned(6,1,difensore) assigned(7,2,attaccante) assigned(8,2,attaccante) assigned(9,2,attaccante) assigned(10,1,difensore) assigned(11,2,attaccante) assigned(12,2,centrocampista) assigned(13,2,portiere) assigned(14,1,attaccante) assigned(15,2,difensore) assigned(16,1,portiere) assigned(17,2,attaccante) assigned(18,1,difensore) assigned(19,2,centrocampista) assigned(20,1,centrocampista) assigned(21,2,attaccante) assigned(22,1,centrocampista) assigned(23,2,centrocampista) assigned(24,2,difensore) assigned(25,2,centrocampista) assigned(26,2,centrocampista) assigned(27,1,attaccante) assigned(28,2,centrocampista) total_penalty(1)
Optimization: 1
OPTIMUM FOUND

Models       : 2+
  Optimum    : yes
Optimization : 1
Calls        : 1
Time         : 0.007s (Solving: 0.00s 1st Model: 0.00s Unsat: 0.00s)
CPU Time     : 0.000s

Tempo di esecuzione Clingo: 0.03 secondi
